inada/spaceship/15.tsp
NAME
TYPE: TSP
COMMENT: spaceship 15.txt
DIMENSION: 19
EDGE_WEIGHT_TYPE: MAX_2D
NODE_COORD_SECTION
0 0 0
1 -8 7
2 -10 4
3 -6 -1
4 -5 -8
5 4 10
6 0 -1
7 -8 -1
8 -7 -10
9 2 8
10 10 1
11 5 4
12 -8 -2
13 -1 5
14 6 -5
15 -7 -3
16 -5 -4
17 9 -5
18 0 0
19 -9 -4
EOF
