problems/spaceship_tsp/15.txt
# distance=63
0 0
0 -1
6 -5
9 -5
10 1
5 4
2 8
4 10
-1 5
-8 7
-10 4
-8 -1
-8 -2
-6 -1
-5 -4
-7 -3
-9 -4
-5 -8
-7 -10
