shiota/starship2/15.out
solve spaceship15 2846885224546622588456656654448582245446662255886565448885222454466625228886428656664444882244662258844546662558446688224688552266565444885226564422255888454446666888522264252228888